c Grafo no formato DIMACS 
p edge 50 117 
e 1 28 
e 1 14 
e 2 30 
e 2 22 
e 2 11 
e 2 10 
e 3 42 
e 3 31 
e 3 23 
e 3 11 
e 4 18 
e 4 17 
e 4 7 
e 5 40 
e 5 32 
e 5 27 
e 5 21 
e 5 17 
e 5 13 
e 5 7 
e 6 49 
e 6 28 
e 6 25 
e 6 22 
e 6 19 
e 6 16 
e 6 14 
e 6 9 
e 6 8 
e 7 47 
e 7 45 
e 7 44 
e 7 42 
e 7 39 
e 7 38 
e 7 28 
e 7 11 
e 8 44 
e 8 42 
e 8 17 
e 8 9 
e 9 48 
e 9 47 
e 9 41 
e 9 38 
e 9 24 
e 9 22 
e 9 13 
e 10 44 
e 10 33 
e 10 27 
e 10 12 
e 10 11 
e 11 45 
e 11 44 
e 11 42 
e 11 34 
e 11 31 
e 11 26 
e 11 22 
e 11 19 
e 11 14 
e 12 47 
e 12 45 
e 12 39 
e 12 33 
e 12 22 
e 13 47 
e 13 40 
e 13 26 
e 14 16 
e 15 45 
e 15 29 
e 15 26 
e 16 27 
e 16 18 
e 17 34 
e 18 44 
e 18 40 
e 18 39 
e 18 37 
e 18 35 
e 18 29 
e 18 19 
e 19 50 
e 19 45 
e 19 40 
e 20 50 
e 20 47 
e 20 39 
e 21 40 
e 22 44 
e 25 46 
e 26 50 
e 26 39 
e 27 43 
e 27 41 
e 28 47 
e 28 39 
e 29 44 
e 29 43 
e 29 42 
e 29 32 
e 29 31 
e 30 43 
e 31 47 
e 33 47 
e 33 43 
e 33 34 
e 34 36 
e 36 49 
e 36 44 
e 37 43 
e 43 48 
e 44 48 
e 46 49 
e 47 49 
